n=588;
k_min=13;
k_max=13;
M=[| 75, 71, 73, 80, 71, 73, 80, 74, 81, 81, 82, 81, 70
 | 75, 71, 73, 81, 71, 73, 80, 74, 80, 81, 83, 82, 70
 | 75, 71, 73, 81, 71, 73, 80, 74, 80, 81, 83, 82, 70
 | 75, 71, 73, 81, 71, 73, 80, 74, 80, 81, 83, 82, 70
 | 75, 72, 73, 82, 71, 73, 79, 74, 80, 81, 83, 82, 70
 | 75, 72, 73, 82, 71, 73, 79, 74, 80, 80, 82, 82, 70
 | 75, 72, 73, 82, 71, 73, 79, 74, 80, 80, 83, 82, 70
 | 75, 72, 73, 83, 71, 73, 79, 74, 79, 80, 82, 82, 70
 | 75, 72, 73, 83, 71, 73, 79, 74, 79, 80, 82, 82, 70
 | 75, 72, 74, 83, 71, 73, 79, 74, 79, 80, 82, 82, 70
 | 75, 72, 74, 83, 71, 73, 79, 75, 79, 80, 81, 82, 70
 | 75, 72, 74, 82, 71, 74, 79, 75, 79, 80, 80, 81, 70
 | 75, 72, 74, 82, 71, 74, 79, 75, 79, 80, 80, 81, 70
 | 75, 72, 74, 83, 71, 74, 79, 75, 79, 80, 80, 81, 70
 | 75, 73, 74, 82, 71, 74, 79, 75, 79, 80, 79, 81, 70
 | 76, 72, 74, 82, 71, 74, 79, 75, 79, 81, 79, 81, 70
 | 76, 72, 74, 82, 71, 74, 79, 75, 80, 81, 79, 81, 70
 | 76, 72, 74, 82, 71, 74, 80, 75, 80, 81, 78, 80, 70
 | 75, 71, 73, 80, 71, 73, 80, 74, 81, 81, 83, 81, 70
 | 75, 71, 73, 80, 71, 73, 80, 74, 80, 81, 83, 81, 70
 | 75, 71, 73, 81, 71, 73, 80, 74, 80, 81, 83, 81, 70
 | 75, 71, 73, 81, 71, 73, 80, 74, 80, 81, 83, 82, 70
 | 75, 71, 73, 81, 71, 73, 80, 74, 80, 81, 83, 81, 70
 | 75, 71, 73, 82, 71, 73, 80, 74, 80, 81, 83, 82, 70
 | 75, 72, 73, 82, 71, 73, 79, 74, 80, 80, 83, 81, 70
 | 75, 72, 73, 82, 71, 73, 79, 74, 80, 80, 82, 82, 70
 | 75, 72, 73, 82, 71, 73, 79, 74, 79, 80, 83, 81, 70
 | 75, 72, 73, 83, 71, 73, 79, 74, 79, 80, 82, 81, 70
 | 75, 72, 73, 83, 71, 73, 79, 74, 79, 80, 82, 81, 70
 | 75, 72, 73, 83, 71, 73, 79, 74, 79, 80, 82, 82, 70
 | 75, 72, 74, 83, 71, 73, 79, 74, 79, 80, 82, 82, 70
 | 75, 72, 74, 83, 71, 73, 79, 74, 79, 80, 81, 81, 70
 | 75, 72, 74, 83, 71, 73, 79, 75, 79, 80, 81, 81, 70
 | 75, 72, 74, 83, 71, 74, 79, 75, 79, 80, 81, 81, 70
 | 75, 73, 74, 83, 71, 74, 79, 75, 79, 80, 80, 81, 70
 | 75, 73, 74, 83, 71, 74, 79, 75, 79, 80, 80, 81, 70
 | 75, 72, 74, 82, 71, 74, 79, 75, 79, 80, 80, 81, 70
 | 75, 73, 75, 83, 71, 74, 79, 75, 79, 80, 80, 81, 70
 | 75, 73, 75, 82, 71, 74, 79, 75, 79, 80, 79, 80, 70
 | 75, 73, 75, 82, 71, 74, 79, 75, 79, 80, 79, 80, 70
 | 76, 73, 75, 82, 71, 74, 79, 75, 79, 80, 79, 80, 70
 | 76, 73, 75, 82, 71, 74, 79, 76, 79, 80, 78, 80, 70
 | 76, 72, 74, 83, 71, 74, 79, 76, 79, 81, 78, 80, 70
 | 75, 71, 73, 80, 71, 73, 80, 74, 80, 81, 83, 81, 70
 | 75, 71, 73, 81, 71, 73, 80, 74, 80, 81, 83, 81, 70
 | 75, 71, 73, 80, 71, 73, 80, 74, 80, 81, 83, 81, 70
 | 75, 71, 73, 81, 71, 73, 80, 74, 80, 81, 83, 81, 70
 | 75, 72, 73, 81, 71, 73, 80, 74, 80, 80, 83, 81, 70
 | 75, 72, 73, 81, 71, 73, 80, 74, 80, 80, 83, 81, 70
 | 75, 72, 73, 81, 71, 73, 80, 74, 80, 81, 83, 81, 70
 | 75, 72, 73, 82, 71, 73, 79, 74, 80, 80, 83, 81, 70
 | 75, 72, 73, 82, 71, 73, 79, 74, 80, 80, 83, 81, 70
 | 75, 72, 73, 82, 71, 73, 79, 74, 79, 80, 83, 81, 70
 | 75, 72, 73, 82, 71, 73, 79, 74, 79, 80, 83, 81, 70
 | 75, 72, 73, 83, 71, 73, 79, 74, 79, 80, 82, 81, 70
 | 75, 72, 73, 83, 71, 73, 79, 74, 79, 80, 82, 81, 70
 | 75, 72, 73, 83, 71, 73, 79, 74, 79, 80, 82, 81, 70
 | 75, 72, 73, 83, 71, 73, 79, 74, 79, 80, 82, 81, 70
 | 75, 72, 74, 83, 71, 73, 79, 74, 79, 80, 82, 81, 70
 | 75, 72, 74, 83, 71, 73, 79, 74, 79, 80, 81, 81, 70
 | 75, 72, 74, 83, 71, 74, 79, 75, 79, 80, 81, 81, 70
 | 75, 73, 74, 83, 71, 74, 79, 75, 79, 80, 81, 81, 71
 | 75, 73, 74, 83, 71, 74, 79, 75, 79, 80, 80, 81, 70
 | 75, 72, 74, 83, 71, 74, 79, 75, 79, 80, 81, 81, 70
 | 75, 72, 74, 83, 71, 74, 79, 75, 79, 80, 81, 81, 70
 | 75, 72, 74, 83, 71, 73, 79, 75, 79, 80, 81, 81, 70
 | 75, 72, 74, 83, 71, 74, 79, 75, 79, 80, 81, 81, 70
 | 75, 72, 74, 83, 71, 74, 79, 75, 79, 80, 81, 81, 70
 | 75, 73, 74, 83, 71, 74, 79, 75, 79, 80, 80, 81, 70
 | 75, 73, 75, 83, 71, 74, 78, 75, 79, 80, 80, 81, 70
 | 75, 73, 75, 83, 71, 74, 78, 75, 79, 80, 79, 80, 70
 | 75, 73, 75, 82, 71, 74, 79, 75, 79, 80, 79, 80, 70
 | 75, 73, 75, 82, 71, 74, 79, 75, 79, 80, 79, 80, 70
 | 76, 73, 75, 82, 71, 74, 79, 76, 79, 80, 79, 80, 70
 | 76, 73, 75, 82, 71, 74, 79, 76, 79, 80, 78, 80, 70
 | 76, 73, 75, 82, 71, 74, 79, 76, 79, 80, 78, 80, 70
 | 76, 72, 75, 83, 71, 74, 79, 76, 80, 81, 78, 80, 70
 | 75, 72, 74, 83, 71, 74, 79, 75, 79, 80, 81, 81, 70
 | 75, 72, 74, 83, 71, 73, 79, 74, 79, 80, 82, 81, 70
 | 75, 72, 74, 83, 71, 73, 79, 74, 79, 80, 82, 81, 70
 | 75, 72, 73, 83, 71, 73, 79, 74, 79, 80, 82, 81, 70
 | 75, 72, 73, 83, 71, 73, 79, 74, 79, 80, 82, 81, 70
 | 75, 72, 73, 83, 71, 73, 79, 74, 79, 80, 82, 81, 70
 | 75, 72, 73, 82, 71, 73, 79, 74, 79, 80, 82, 81, 70
 | 75, 72, 74, 82, 71, 74, 79, 75, 79, 80, 80, 81, 70
 | 75, 73, 74, 83, 71, 74, 79, 75, 79, 80, 80, 81, 70
 | 75, 73, 75, 83, 71, 74, 79, 75, 79, 80, 79, 81, 70
 | 75, 72, 73, 82, 71, 73, 79, 74, 79, 80, 83, 81, 70
 | 75, 72, 73, 82, 71, 73, 79, 74, 79, 80, 83, 81, 70
 | 75, 72, 73, 82, 71, 73, 79, 74, 80, 80, 83, 81, 70
 | 75, 72, 73, 81, 71, 73, 79, 74, 80, 80, 82, 81, 70
 | 75, 72, 73, 81, 71, 73, 80, 74, 80, 80, 83, 81, 70
 | 75, 72, 73, 81, 71, 73, 80, 74, 80, 80, 83, 81, 70
 | 75, 72, 73, 81, 71, 73, 80, 74, 80, 80, 83, 81, 70
 | 75, 72, 73, 81, 71, 73, 80, 74, 80, 80, 83, 81, 70
 | 75, 72, 73, 80, 71, 73, 80, 74, 80, 80, 83, 81, 70
 | 75, 72, 73, 80, 71, 73, 80, 75, 80, 80, 83, 81, 70
 | 75, 71, 73, 80, 71, 73, 80, 74, 80, 80, 83, 81, 70
 | 75, 73, 74, 83, 71, 74, 79, 75, 79, 80, 80, 81, 70
 | 75, 72, 74, 83, 71, 74, 79, 75, 79, 80, 80, 81, 70
 | 75, 72, 74, 83, 71, 74, 79, 75, 79, 80, 79, 81, 70
 | 75, 72, 74, 83, 71, 74, 79, 75, 79, 80, 80, 81, 70
 | 75, 72, 74, 83, 71, 73, 79, 75, 79, 80, 81, 82, 70
 | 75, 72, 74, 82, 71, 74, 79, 75, 79, 80, 81, 81, 70
 | 75, 72, 74, 82, 71, 74, 79, 75, 79, 80, 79, 81, 70
 | 76, 72, 74, 82, 71, 74, 79, 75, 80, 81, 79, 81, 70
 | 76, 73, 75, 82, 71, 74, 79, 76, 79, 81, 78, 80, 70
 | 76, 73, 75, 82, 71, 74, 79, 76, 79, 80, 78, 80, 70
 | 75, 71, 73, 81, 70, 73, 80, 74, 81, 82, 81, 83, 69
 | 75, 71, 73, 81, 70, 73, 80, 74, 81, 82, 82, 83, 69
 | 75, 71, 73, 81, 70, 73, 80, 74, 80, 82, 82, 83, 69
 | 75, 71, 73, 81, 70, 73, 80, 74, 80, 81, 82, 83, 69
 | 75, 71, 73, 82, 70, 73, 80, 74, 80, 81, 82, 83, 69
 | 75, 71, 73, 82, 70, 73, 80, 74, 80, 81, 81, 83, 69
 | 75, 72, 73, 81, 70, 73, 80, 75, 80, 82, 81, 82, 69
 | 75, 71, 73, 81, 70, 73, 80, 75, 81, 82, 80, 83, 69
 | 75, 71, 73, 80, 70, 73, 80, 75, 81, 82, 81, 83, 69
 | 75, 71, 73, 80, 70, 73, 81, 74, 81, 82, 81, 83, 69
 | 75, 71, 73, 81, 70, 73, 80, 74, 81, 82, 81, 83, 69
 | 75, 71, 73, 81, 70, 73, 80, 74, 81, 82, 81, 83, 69
 | 75, 71, 73, 81, 70, 73, 80, 74, 80, 82, 81, 83, 69
 | 75, 71, 73, 81, 70, 73, 80, 75, 80, 82, 81, 83, 69
 | 75, 71, 73, 81, 70, 73, 80, 74, 80, 82, 81, 83, 69
 | 75, 71, 73, 81, 70, 73, 80, 75, 81, 82, 81, 83, 69
 | 75, 71, 73, 81, 70, 73, 80, 74, 80, 82, 81, 83, 69
 | 75, 71, 73, 81, 70, 73, 80, 74, 80, 81, 81, 83, 69
 | 75, 71, 73, 81, 70, 73, 80, 74, 80, 82, 81, 83, 69
 | 75, 71, 73, 81, 70, 73, 80, 75, 80, 82, 80, 82, 69
 | 75, 72, 73, 81, 70, 73, 80, 75, 80, 82, 81, 82, 69
 | 75, 71, 73, 81, 70, 73, 80, 74, 80, 81, 81, 83, 69
 | 75, 72, 73, 81, 70, 73, 80, 74, 80, 81, 81, 83, 69
 | 75, 72, 73, 81, 70, 73, 80, 75, 80, 81, 81, 82, 69
 | 75, 71, 73, 80, 70, 73, 81, 75, 82, 82, 81, 82, 69
 | 75, 71, 73, 80, 70, 73, 81, 75, 82, 82, 81, 82, 69
 | 75, 71, 73, 80, 70, 73, 81, 75, 81, 83, 80, 82, 69
 | 76, 71, 73, 81, 70, 73, 81, 75, 81, 82, 80, 82, 69
 | 76, 71, 73, 80, 70, 74, 81, 75, 82, 82, 79, 81, 69
 | 76, 71, 73, 80, 70, 74, 82, 75, 82, 82, 79, 81, 69
 | 76, 71, 73, 79, 70, 73, 82, 75, 83, 82, 80, 81, 69
 | 76, 71, 73, 79, 70, 73, 82, 75, 82, 82, 80, 81, 69
 | 76, 71, 73, 80, 70, 73, 81, 75, 82, 82, 81, 82, 69
 | 75, 71, 73, 80, 70, 73, 81, 75, 82, 82, 80, 82, 69
 | 75, 71, 73, 80, 70, 73, 81, 75, 82, 83, 80, 82, 69
 | 75, 71, 73, 80, 70, 73, 81, 75, 82, 83, 80, 82, 69
 | 76, 71, 73, 80, 70, 73, 81, 75, 82, 83, 80, 82, 69
 | 76, 71, 73, 80, 70, 73, 82, 75, 82, 82, 80, 82, 69
 | 76, 71, 73, 79, 70, 73, 82, 75, 82, 83, 80, 81, 69
 | 76, 71, 73, 80, 70, 73, 82, 75, 82, 83, 80, 81, 69
 | 76, 71, 73, 80, 70, 73, 82, 75, 82, 82, 79, 81, 69
 | 76, 71, 73, 80, 70, 73, 82, 75, 82, 83, 79, 81, 69
 | 76, 71, 73, 80, 70, 74, 82, 75, 82, 82, 79, 81, 69
 | 76, 71, 73, 81, 70, 73, 81, 75, 81, 83, 79, 81, 69
 | 76, 71, 73, 80, 70, 73, 81, 75, 82, 82, 80, 82, 69
 | 76, 71, 73, 79, 70, 73, 82, 75, 82, 83, 80, 81, 69
 | 76, 71, 73, 79, 70, 73, 82, 75, 82, 82, 81, 81, 69
 | 76, 71, 73, 80, 70, 73, 81, 75, 82, 83, 79, 81, 69
 | 76, 71, 73, 81, 70, 73, 81, 75, 81, 82, 80, 82, 69
 | 75, 71, 73, 80, 70, 73, 81, 75, 81, 83, 80, 82, 69
 | 75, 71, 73, 80, 70, 73, 81, 75, 81, 83, 80, 82, 69
 | 76, 71, 73, 79, 70, 74, 82, 75, 82, 82, 79, 80, 69
 | 77, 71, 73, 79, 70, 74, 82, 75, 82, 82, 79, 80, 69
 | 77, 71, 73, 79, 71, 74, 82, 76, 82, 81, 78, 80, 69
 | 76, 71, 73, 79, 70, 74, 83, 75, 82, 82, 79, 80, 69
 | 77, 71, 73, 78, 71, 74, 83, 75, 82, 81, 79, 80, 70
 | 77, 72, 73, 78, 71, 74, 83, 76, 81, 81, 79, 79, 70
 | 78, 72, 74, 77, 72, 75, 83, 76, 80, 80, 78, 78, 71
 | 78, 72, 74, 78, 72, 75, 82, 76, 80, 80, 78, 78, 71
 | 78, 72, 74, 78, 72, 75, 83, 77, 80, 80, 77, 78, 70
 | 78, 72, 74, 78, 72, 75, 82, 77, 80, 80, 77, 78, 70
 | 77, 72, 74, 79, 71, 75, 82, 76, 81, 81, 78, 79, 70
 | 77, 72, 73, 79, 71, 74, 82, 76, 81, 81, 78, 79, 70
 | 77, 71, 73, 79, 71, 74, 83, 76, 82, 81, 78, 79, 69
 | 77, 71, 73, 78, 71, 74, 83, 76, 81, 81, 79, 79, 70
 | 77, 72, 73, 78, 71, 74, 83, 76, 81, 81, 78, 79, 70
 | 78, 72, 74, 78, 71, 75, 83, 76, 81, 80, 78, 79, 70
 | 77, 72, 74, 78, 71, 75, 83, 76, 81, 81, 78, 79, 70
 | 77, 72, 73, 78, 71, 74, 83, 76, 81, 81, 78, 79, 70
 | 77, 71, 73, 78, 71, 74, 83, 76, 82, 81, 78, 79, 70
 | 77, 71, 73, 79, 71, 74, 83, 75, 82, 81, 79, 80, 69
 | 77, 72, 73, 78, 71, 74, 82, 76, 81, 81, 79, 79, 70
 | 77, 72, 73, 78, 71, 74, 83, 76, 81, 81, 78, 79, 70
 | 77, 72, 73, 78, 71, 74, 83, 76, 81, 81, 78, 79, 70
 | 77, 71, 73, 79, 71, 74, 83, 76, 82, 81, 79, 80, 69
 | 77, 72, 73, 79, 71, 74, 82, 76, 81, 81, 78, 79, 69
 | 77, 72, 74, 79, 71, 74, 83, 76, 81, 81, 78, 79, 70
 | 77, 72, 74, 78, 71, 75, 83, 76, 81, 81, 78, 79, 70
 | 77, 71, 73, 79, 71, 74, 83, 75, 82, 81, 79, 80, 69
 | 76, 71, 73, 79, 70, 74, 83, 75, 82, 82, 79, 80, 69
 | 76, 71, 73, 79, 71, 74, 83, 75, 82, 82, 79, 80, 69
 | 77, 71, 73, 78, 71, 74, 83, 75, 82, 81, 79, 80, 70
 | 77, 71, 73, 78, 71, 74, 83, 76, 81, 81, 79, 79, 70
 | 77, 71, 73, 78, 71, 74, 83, 76, 82, 81, 79, 80, 70
 | 77, 71, 73, 78, 71, 74, 83, 76, 81, 81, 79, 79, 70
 | 77, 71, 73, 78, 71, 74, 82, 75, 82, 81, 80, 80, 70
 | 77, 71, 73, 78, 71, 74, 83, 75, 82, 81, 79, 80, 69
 | 77, 71, 73, 79, 71, 74, 82, 76, 82, 81, 78, 80, 69
 | 77, 71, 73, 78, 71, 74, 82, 75, 82, 81, 79, 80, 70
 | 76, 71, 73, 79, 70, 74, 83, 75, 82, 82, 79, 80, 69
 | 76, 71, 73, 79, 70, 74, 83, 75, 82, 82, 79, 80, 69
 | 77, 72, 74, 79, 71, 74, 82, 76, 81, 81, 78, 79, 69
 | 78, 72, 74, 78, 71, 75, 83, 76, 81, 80, 77, 78, 70
 | 77, 72, 74, 78, 71, 75, 83, 76, 81, 81, 78, 79, 70
 | 78, 72, 74, 78, 71, 75, 83, 76, 81, 80, 77, 78, 70
 | 78, 72, 74, 78, 72, 75, 83, 76, 81, 80, 78, 78, 70
 | 78, 72, 74, 78, 72, 75, 83, 76, 81, 80, 78, 78, 70
 | 77, 72, 73, 78, 72, 75, 83, 76, 81, 80, 78, 79, 70
 | 77, 72, 73, 78, 72, 74, 82, 76, 81, 80, 79, 79, 70
 | 78, 72, 74, 77, 72, 75, 82, 76, 80, 80, 78, 78, 71
 | 78, 72, 74, 78, 71, 75, 83, 76, 81, 80, 78, 78, 70
 | 78, 72, 74, 78, 72, 75, 83, 76, 80, 80, 77, 78, 71
 | 78, 72, 74, 78, 72, 75, 83, 77, 80, 80, 77, 78, 70
 | 78, 72, 74, 78, 72, 75, 83, 77, 80, 80, 77, 78, 70
 | 78, 72, 74, 78, 71, 75, 83, 77, 80, 80, 77, 78, 70
 | 77, 71, 73, 79, 71, 74, 83, 75, 82, 82, 79, 80, 69
 | 77, 71, 73, 79, 71, 74, 82, 76, 82, 81, 78, 80, 69
 | 77, 71, 73, 79, 71, 74, 83, 76, 81, 81, 78, 79, 70
 | 77, 72, 74, 78, 71, 74, 83, 76, 81, 81, 78, 79, 70
 | 78, 72, 74, 79, 71, 75, 83, 76, 81, 80, 77, 79, 70
 | 78, 72, 74, 78, 71, 75, 83, 77, 80, 80, 77, 78, 70
 | 78, 72, 74, 78, 72, 75, 83, 76, 80, 80, 77, 78, 70
 | 78, 72, 74, 78, 72, 75, 83, 76, 81, 80, 78, 79, 70
 | 78, 72, 74, 78, 72, 75, 83, 76, 81, 80, 78, 78, 70
 | 77, 71, 73, 78, 71, 74, 83, 76, 82, 81, 79, 80, 70
 | 77, 71, 73, 79, 71, 74, 83, 76, 82, 81, 78, 79, 69
 | 77, 72, 74, 78, 71, 74, 83, 76, 81, 81, 78, 79, 70
 | 77, 72, 74, 78, 71, 74, 83, 76, 81, 81, 78, 79, 70
 | 77, 72, 74, 78, 71, 75, 83, 76, 81, 81, 78, 79, 70
 | 77, 72, 73, 78, 71, 74, 83, 76, 81, 81, 78, 79, 70
 | 77, 72, 73, 78, 71, 74, 83, 76, 81, 81, 79, 79, 70
 | 77, 71, 73, 79, 71, 74, 82, 76, 82, 82, 78, 80, 69
 | 77, 71, 73, 79, 70, 74, 82, 75, 82, 82, 79, 80, 69
 | 77, 71, 73, 78, 71, 74, 83, 76, 81, 81, 79, 79, 70
 | 83, 76, 77, 73, 77, 80, 77, 80, 75, 74, 72, 73, 76
 | 83, 76, 78, 74, 77, 80, 77, 81, 75, 74, 72, 73, 75
 | 82, 76, 78, 74, 77, 80, 77, 81, 75, 74, 72, 73, 75
 | 83, 76, 78, 74, 76, 80, 77, 81, 75, 74, 71, 73, 75
 | 83, 76, 78, 74, 76, 80, 77, 81, 75, 74, 71, 73, 75
 | 82, 76, 78, 74, 76, 80, 77, 81, 75, 75, 71, 73, 75
 | 83, 76, 77, 74, 77, 80, 78, 80, 75, 75, 72, 73, 75
 | 83, 76, 77, 74, 77, 80, 78, 81, 75, 75, 72, 73, 75
 | 83, 76, 78, 74, 76, 80, 78, 81, 75, 75, 72, 73, 75
 | 83, 76, 78, 74, 76, 80, 78, 81, 75, 75, 72, 73, 75
 | 83, 76, 78, 74, 76, 80, 78, 81, 75, 75, 72, 73, 75
 | 83, 76, 78, 74, 76, 79, 78, 81, 75, 75, 72, 73, 75
 | 83, 76, 78, 74, 76, 80, 78, 81, 75, 75, 71, 73, 75
 | 83, 76, 78, 74, 76, 80, 77, 81, 75, 74, 71, 73, 75
 | 82, 77, 78, 74, 77, 80, 77, 81, 75, 74, 71, 72, 75
 | 83, 76, 78, 73, 77, 80, 77, 81, 74, 74, 71, 72, 75
 | 82, 76, 78, 73, 77, 80, 77, 81, 75, 74, 71, 73, 76
 | 82, 76, 78, 73, 77, 80, 77, 81, 75, 74, 71, 72, 76
 | 83, 76, 77, 74, 76, 80, 78, 80, 75, 75, 72, 73, 75
 | 83, 76, 77, 74, 76, 80, 78, 81, 75, 75, 72, 73, 75
 | 83, 76, 78, 73, 77, 80, 77, 81, 74, 74, 71, 72, 76
 | 83, 76, 77, 74, 76, 79, 78, 81, 75, 75, 72, 73, 75
 | 83, 76, 78, 74, 77, 80, 77, 81, 75, 74, 71, 72, 75
 | 82, 76, 78, 74, 76, 80, 78, 81, 75, 75, 71, 73, 75
 | 83, 77, 78, 74, 76, 80, 77, 81, 75, 74, 71, 72, 75
 | 83, 76, 78, 74, 76, 80, 77, 81, 75, 75, 71, 73, 75
 | 83, 76, 77, 73, 77, 80, 77, 80, 75, 75, 72, 73, 76
 | 83, 76, 77, 73, 77, 80, 77, 80, 75, 74, 72, 73, 76
 | 83, 76, 77, 73, 77, 80, 77, 80, 75, 75, 72, 73, 76
 | 83, 76, 78, 73, 77, 80, 77, 81, 75, 74, 72, 73, 76
 | 82, 76, 77, 73, 77, 80, 77, 80, 75, 74, 72, 73, 76
 | 83, 76, 77, 74, 76, 80, 78, 80, 75, 75, 72, 73, 75
 | 82, 77, 77, 73, 78, 81, 76, 79, 74, 74, 72, 72, 77
 | 82, 77, 77, 73, 78, 81, 76, 79, 74, 74, 72, 72, 77
 | 83, 77, 78, 73, 78, 82, 76, 80, 74, 74, 71, 72, 77
 | 83, 77, 78, 73, 78, 82, 76, 80, 74, 74, 71, 72, 77
 | 83, 77, 78, 73, 78, 82, 76, 80, 74, 73, 71, 72, 77
 | 83, 77, 78, 73, 78, 82, 76, 81, 74, 73, 71, 72, 77
 | 82, 77, 78, 73, 78, 81, 76, 81, 74, 73, 71, 72, 77
 | 83, 77, 79, 73, 78, 81, 76, 81, 73, 73, 70, 71, 77
 | 83, 77, 79, 73, 78, 81, 76, 82, 73, 73, 70, 71, 77
 | 82, 78, 79, 73, 78, 81, 76, 82, 74, 73, 70, 72, 76
 | 82, 78, 79, 73, 77, 81, 76, 82, 74, 73, 70, 72, 76
 | 81, 78, 80, 74, 77, 81, 76, 83, 74, 74, 70, 72, 76
 | 81, 78, 80, 74, 77, 81, 76, 82, 74, 74, 70, 72, 75
 | 81, 78, 80, 73, 77, 81, 76, 82, 74, 73, 70, 72, 76
 | 82, 78, 79, 73, 77, 81, 76, 82, 74, 73, 70, 72, 76
 | 82, 77, 79, 73, 78, 81, 76, 82, 74, 73, 70, 72, 77
 | 83, 77, 78, 73, 78, 81, 76, 81, 74, 73, 70, 72, 77
 | 83, 77, 78, 73, 78, 81, 76, 81, 74, 74, 71, 72, 77
 | 83, 77, 78, 73, 78, 81, 76, 80, 74, 74, 71, 72, 77
 | 83, 77, 78, 73, 78, 81, 76, 80, 74, 74, 71, 72, 77
 | 83, 76, 77, 73, 78, 81, 76, 80, 74, 74, 72, 72, 77
 | 82, 76, 77, 73, 78, 81, 77, 79, 74, 74, 72, 72, 77
 | 82, 77, 78, 73, 78, 82, 76, 80, 74, 74, 71, 72, 78
 | 82, 77, 78, 72, 79, 82, 76, 80, 74, 73, 71, 72, 78
 | 82, 77, 78, 72, 79, 82, 76, 80, 74, 73, 71, 72, 78
 | 82, 77, 78, 72, 79, 82, 76, 80, 74, 73, 71, 72, 78
 | 82, 77, 78, 72, 79, 82, 76, 80, 74, 73, 71, 72, 78
 | 82, 77, 78, 72, 79, 82, 76, 81, 73, 73, 71, 72, 78
 | 83, 77, 79, 72, 79, 82, 76, 81, 73, 73, 70, 71, 78
 | 83, 77, 79, 72, 78, 82, 76, 81, 73, 73, 70, 71, 77
 | 82, 78, 79, 72, 79, 82, 76, 82, 73, 73, 70, 71, 77
 | 82, 78, 79, 73, 78, 82, 76, 82, 73, 73, 70, 71, 77
 | 82, 78, 79, 73, 78, 81, 76, 82, 73, 73, 70, 71, 77
 | 81, 78, 80, 73, 78, 81, 76, 83, 73, 73, 70, 71, 76
 | 81, 78, 80, 73, 78, 82, 76, 83, 73, 73, 70, 71, 76
 | 81, 78, 80, 73, 78, 81, 76, 83, 73, 73, 70, 71, 76
 | 81, 78, 80, 73, 78, 82, 76, 83, 73, 73, 70, 71, 76
 | 81, 78, 80, 73, 77, 81, 76, 83, 73, 73, 70, 72, 76
 | 81, 78, 80, 74, 77, 81, 76, 83, 73, 74, 70, 72, 76
 | 81, 78, 80, 74, 77, 81, 76, 83, 74, 74, 70, 72, 76
 | 82, 78, 79, 73, 78, 81, 76, 82, 74, 73, 70, 72, 76
 | 81, 78, 80, 73, 78, 81, 76, 83, 73, 73, 70, 71, 77
 | 82, 77, 78, 73, 78, 81, 76, 81, 74, 73, 71, 72, 77
 | 82, 78, 79, 73, 78, 81, 76, 82, 73, 73, 70, 71, 77
 | 82, 78, 79, 73, 78, 82, 76, 82, 73, 73, 70, 71, 77
 | 83, 77, 78, 73, 78, 81, 76, 80, 74, 74, 71, 72, 77
 | 82, 77, 78, 73, 78, 82, 76, 80, 74, 73, 71, 72, 77
 | 83, 77, 78, 73, 78, 82, 76, 80, 74, 73, 71, 72, 77
 | 82, 77, 78, 73, 78, 82, 76, 81, 74, 73, 71, 72, 77
 | 82, 78, 79, 72, 79, 83, 75, 80, 73, 73, 70, 71, 79
 | 82, 78, 79, 72, 80, 82, 75, 80, 73, 73, 70, 71, 79
 | 82, 78, 79, 72, 80, 83, 75, 81, 73, 72, 70, 71, 79
 | 82, 78, 79, 72, 80, 83, 75, 81, 73, 72, 70, 71, 79
 | 82, 79, 80, 72, 80, 83, 75, 81, 73, 72, 69, 71, 78
 | 81, 79, 80, 72, 79, 83, 75, 81, 73, 72, 69, 71, 78
 | 81, 79, 80, 72, 79, 82, 75, 82, 73, 72, 69, 71, 78
 | 82, 79, 80, 72, 80, 83, 75, 81, 73, 72, 69, 71, 78
 | 81, 78, 79, 72, 80, 83, 75, 80, 73, 73, 70, 71, 79
 | 81, 78, 79, 72, 80, 82, 75, 80, 73, 72, 70, 71, 79
 | 82, 78, 79, 72, 80, 83, 75, 81, 73, 72, 70, 71, 79
 | 81, 79, 79, 72, 80, 83, 75, 81, 73, 72, 69, 71, 79
 | 81, 79, 80, 72, 80, 83, 75, 81, 72, 72, 69, 71, 79
 | 81, 79, 80, 72, 80, 83, 75, 81, 72, 72, 69, 70, 79
 | 81, 79, 80, 72, 80, 83, 75, 81, 72, 72, 69, 70, 79
 | 81, 79, 80, 72, 80, 83, 75, 81, 72, 72, 69, 70, 79
 | 81, 78, 79, 72, 80, 82, 75, 80, 73, 73, 70, 71, 79
 | 81, 78, 79, 72, 80, 83, 75, 80, 73, 73, 70, 71, 79
 | 82, 78, 79, 72, 80, 82, 75, 80, 73, 73, 70, 71, 79
 | 82, 78, 79, 72, 80, 83, 75, 80, 73, 73, 70, 71, 79
 | 81, 79, 79, 72, 80, 83, 75, 80, 73, 72, 70, 71, 79
 | 81, 79, 81, 72, 80, 83, 75, 81, 72, 72, 69, 70, 78
 | 81, 79, 80, 72, 79, 83, 75, 81, 72, 72, 69, 71, 78
 | 81, 79, 81, 72, 80, 83, 75, 81, 72, 72, 69, 71, 78
 | 81, 79, 81, 72, 79, 82, 75, 82, 72, 72, 69, 71, 78
 | 81, 80, 81, 72, 80, 82, 75, 81, 72, 72, 69, 71, 78
 | 80, 80, 81, 72, 79, 83, 75, 82, 72, 72, 69, 71, 78
 | 81, 79, 81, 72, 79, 82, 75, 82, 73, 72, 69, 71, 78
 | 80, 79, 81, 72, 79, 83, 75, 82, 72, 72, 69, 71, 78
 | 82, 78, 80, 72, 80, 83, 75, 81, 73, 72, 69, 71, 78
 | 81, 79, 80, 72, 80, 83, 75, 81, 73, 72, 69, 71, 79
 | 81, 79, 80, 72, 80, 83, 75, 81, 72, 72, 69, 71, 79
 | 82, 78, 79, 72, 80, 83, 75, 81, 73, 72, 70, 71, 79
 | 80, 80, 80, 72, 82, 81, 74, 80, 72, 72, 69, 70, 81
 | 80, 81, 80, 72, 83, 81, 74, 79, 72, 72, 69, 70, 82
 | 79, 81, 80, 72, 83, 80, 74, 79, 72, 72, 69, 70, 82
 | 79, 81, 80, 72, 82, 80, 74, 79, 72, 72, 70, 71, 83
 | 79, 81, 80, 72, 83, 80, 74, 78, 72, 72, 70, 71, 82
 | 78, 81, 80, 72, 83, 79, 74, 78, 72, 72, 70, 71, 82
 | 78, 81, 80, 73, 83, 79, 74, 78, 73, 72, 70, 71, 82
 | 80, 81, 80, 72, 82, 81, 74, 79, 72, 72, 69, 70, 81
 | 79, 81, 80, 72, 83, 80, 74, 79, 72, 72, 69, 70, 82
 | 79, 81, 80, 72, 83, 80, 74, 79, 72, 72, 69, 71, 82
 | 79, 81, 80, 72, 82, 80, 74, 79, 72, 72, 70, 71, 82
 | 79, 81, 80, 72, 83, 80, 74, 79, 72, 72, 70, 71, 82
 | 79, 81, 80, 72, 82, 80, 74, 79, 72, 72, 70, 71, 83
 | 79, 81, 80, 72, 83, 80, 74, 79, 72, 72, 70, 71, 83
 | 79, 81, 80, 72, 83, 80, 74, 78, 72, 72, 70, 71, 83
 | 79, 81, 80, 72, 83, 80, 74, 78, 72, 72, 70, 71, 82
 | 79, 81, 79, 72, 83, 79, 74, 78, 72, 72, 70, 71, 82
 | 78, 81, 80, 72, 83, 79, 74, 78, 72, 72, 70, 71, 82
 | 78, 81, 80, 72, 83, 79, 74, 78, 72, 72, 70, 71, 82
 | 78, 81, 80, 72, 83, 79, 74, 78, 72, 72, 70, 71, 82
 | 78, 81, 80, 73, 83, 79, 74, 78, 73, 72, 70, 71, 82
 | 79, 81, 80, 72, 82, 80, 74, 79, 72, 72, 69, 71, 82
 | 79, 81, 80, 72, 82, 80, 74, 79, 72, 72, 70, 71, 82
 | 79, 81, 80, 72, 83, 81, 74, 79, 72, 72, 69, 70, 82
 | 79, 81, 80, 72, 83, 80, 74, 79, 72, 72, 69, 70, 82
 | 78, 81, 80, 73, 83, 79, 74, 78, 73, 72, 70, 71, 82
 | 78, 81, 80, 73, 83, 79, 74, 78, 73, 73, 71, 72, 81
 | 78, 81, 80, 73, 83, 79, 74, 78, 73, 72, 70, 71, 82
 | 78, 81, 80, 73, 83, 79, 74, 78, 72, 72, 70, 71, 82
 | 78, 81, 80, 72, 83, 79, 74, 78, 72, 72, 70, 71, 82
 | 78, 81, 80, 73, 83, 79, 74, 78, 72, 72, 70, 71, 82
 | 79, 81, 80, 72, 83, 80, 74, 78, 72, 72, 70, 71, 83
 | 79, 81, 80, 72, 83, 80, 74, 79, 72, 72, 69, 71, 82
 | 79, 81, 80, 72, 83, 80, 74, 79, 72, 72, 70, 71, 82
 | 79, 81, 80, 72, 83, 80, 74, 79, 72, 72, 70, 71, 82
 | 79, 81, 80, 72, 83, 80, 74, 78, 72, 72, 70, 71, 82
 | 78, 81, 80, 72, 83, 79, 74, 78, 72, 72, 70, 71, 82
 | 78, 81, 80, 72, 83, 79, 74, 78, 72, 72, 70, 71, 82
 | 78, 81, 80, 72, 83, 79, 74, 78, 72, 72, 70, 71, 82
 | 78, 81, 80, 72, 83, 79, 74, 78, 72, 72, 70, 71, 82
 | 79, 80, 79, 72, 83, 80, 74, 79, 72, 72, 70, 71, 82
 | 79, 80, 79, 72, 83, 80, 74, 79, 72, 72, 70, 71, 82
 | 79, 80, 79, 72, 83, 80, 74, 78, 72, 72, 70, 71, 82
 | 79, 80, 79, 72, 83, 80, 74, 79, 72, 72, 70, 71, 82
 | 79, 80, 79, 72, 82, 80, 74, 79, 72, 72, 70, 71, 82
 | 79, 80, 79, 72, 83, 80, 74, 78, 72, 72, 70, 71, 82
 | 78, 80, 79, 72, 83, 79, 74, 78, 73, 72, 71, 71, 82
 | 79, 80, 79, 72, 83, 80, 74, 78, 72, 72, 70, 71, 82
 | 79, 80, 79, 72, 83, 79, 74, 78, 73, 72, 71, 71, 82
 | 78, 80, 79, 73, 83, 79, 74, 78, 73, 73, 71, 72, 82
 | 79, 80, 79, 72, 83, 80, 74, 78, 73, 72, 71, 71, 82
 | 79, 80, 79, 72, 83, 80, 74, 78, 72, 72, 70, 71, 82
 | 79, 80, 79, 72, 83, 80, 74, 78, 72, 72, 70, 71, 82
 | 79, 80, 79, 72, 83, 80, 74, 78, 73, 72, 70, 71, 82
 | 79, 80, 79, 72, 83, 80, 74, 78, 73, 72, 71, 71, 82
 | 79, 80, 79, 72, 83, 79, 74, 78, 73, 72, 71, 71, 82
 | 78, 80, 79, 73, 83, 79, 74, 78, 73, 73, 71, 71, 82
 | 78, 80, 79, 73, 83, 79, 74, 78, 73, 73, 71, 72, 82
 | 79, 80, 79, 72, 83, 80, 74, 78, 72, 72, 70, 71, 82
 | 79, 80, 79, 72, 83, 80, 74, 78, 72, 72, 70, 71, 82
 | 79, 80, 79, 72, 83, 80, 74, 79, 72, 72, 70, 71, 82
 | 79, 80, 79, 72, 83, 80, 74, 79, 72, 72, 70, 71, 82
 | 79, 80, 79, 72, 83, 80, 74, 78, 72, 72, 70, 71, 82
 | 79, 80, 79, 72, 83, 80, 74, 78, 73, 72, 71, 71, 82
 | 79, 80, 79, 72, 83, 79, 74, 78, 73, 72, 70, 71, 82
 | 79, 80, 79, 72, 83, 79, 74, 78, 73, 72, 70, 71, 82
 | 79, 80, 79, 72, 83, 80, 74, 78, 72, 72, 70, 71, 82
 | 79, 80, 79, 72, 83, 80, 74, 78, 73, 72, 70, 71, 82
 | 79, 82, 80, 72, 83, 80, 74, 79, 72, 72, 69, 70, 82
 | 79, 82, 80, 72, 83, 80, 74, 79, 72, 72, 69, 71, 82
 | 78, 82, 80, 72, 83, 80, 74, 78, 72, 72, 70, 71, 82
 | 78, 81, 80, 72, 82, 79, 74, 78, 72, 72, 70, 71, 82
 | 78, 81, 80, 72, 83, 79, 74, 78, 72, 72, 70, 71, 82
 | 78, 82, 80, 72, 83, 80, 74, 78, 72, 72, 70, 71, 82
 | 79, 82, 80, 72, 83, 80, 74, 79, 72, 72, 70, 71, 82
 | 79, 82, 80, 72, 83, 80, 74, 79, 72, 72, 69, 71, 82
 | 78, 82, 80, 72, 83, 80, 74, 79, 72, 72, 70, 71, 82
 | 78, 82, 80, 72, 83, 79, 74, 78, 72, 72, 70, 71, 82
 | 78, 81, 80, 72, 82, 79, 74, 78, 72, 72, 70, 71, 82
 | 78, 82, 80, 72, 83, 79, 74, 78, 72, 72, 70, 71, 82
 | 78, 82, 80, 72, 83, 80, 74, 79, 72, 72, 70, 71, 82
 | 78, 82, 80, 72, 83, 80, 74, 79, 72, 72, 69, 71, 82
 | 79, 82, 80, 72, 83, 80, 74, 79, 72, 72, 69, 71, 82
 | 79, 82, 80, 72, 83, 80, 74, 79, 72, 72, 69, 71, 82
 | 79, 82, 80, 72, 83, 80, 74, 79, 72, 72, 70, 71, 82
 | 78, 81, 80, 72, 83, 79, 74, 78, 72, 72, 70, 71, 82
 | 78, 81, 80, 72, 82, 79, 74, 78, 72, 72, 70, 71, 82
 | 78, 82, 80, 72, 83, 79, 74, 78, 72, 72, 70, 71, 82
 | 78, 82, 80, 72, 83, 80, 74, 79, 72, 72, 70, 71, 82
 | 79, 82, 80, 72, 83, 80, 74, 79, 72, 72, 69, 71, 82
 | 78, 82, 80, 72, 83, 79, 74, 78, 72, 72, 70, 71, 82
 | 79, 82, 80, 72, 83, 80, 74, 79, 72, 72, 69, 71, 82
 | 79, 82, 82, 72, 81, 81, 74, 80, 72, 72, 69, 70, 80
 | 79, 82, 82, 72, 81, 81, 74, 80, 72, 72, 69, 71, 79
 | 79, 82, 82, 72, 81, 81, 74, 80, 72, 72, 69, 71, 80
 | 79, 82, 82, 72, 81, 81, 74, 80, 72, 72, 69, 71, 79
 | 79, 82, 82, 73, 80, 81, 74, 80, 72, 72, 69, 71, 79
 | 79, 82, 83, 73, 80, 81, 74, 80, 72, 72, 69, 71, 79
 | 78, 82, 83, 73, 79, 81, 74, 80, 72, 73, 69, 71, 78
 | 78, 81, 83, 73, 79, 80, 75, 80, 73, 73, 69, 71, 78
 | 78, 81, 83, 73, 79, 81, 74, 80, 72, 73, 69, 71, 78
 | 79, 82, 83, 73, 80, 81, 74, 80, 72, 72, 69, 71, 78
 | 79, 82, 83, 73, 80, 81, 74, 80, 72, 72, 69, 71, 79
 | 79, 82, 82, 73, 80, 81, 74, 80, 72, 72, 69, 71, 79
 | 79, 82, 82, 72, 81, 81, 74, 80, 72, 72, 69, 71, 79
 | 79, 82, 83, 73, 80, 81, 74, 80, 72, 72, 69, 71, 79
 | 78, 81, 83, 73, 79, 81, 74, 80, 72, 73, 69, 71, 78
 | 78, 81, 83, 74, 79, 80, 75, 80, 73, 73, 69, 71, 78
 | 78, 82, 83, 73, 79, 81, 74, 80, 72, 73, 69, 71, 78
 | 78, 82, 83, 73, 80, 81, 74, 80, 72, 72, 69, 71, 78
 | 79, 82, 83, 73, 80, 81, 74, 80, 72, 72, 69, 71, 79
 | 79, 82, 83, 73, 80, 81, 74, 80, 72, 72, 69, 71, 79
 | 78, 81, 83, 74, 79, 80, 75, 80, 73, 73, 70, 71, 77
 | 79, 80, 83, 74, 78, 80, 75, 80, 73, 73, 70, 72, 77
 | 79, 81, 82, 73, 79, 81, 75, 80, 73, 73, 69, 71, 77
 | 79, 81, 83, 73, 79, 81, 75, 80, 72, 73, 69, 71, 78
 | 79, 81, 83, 73, 80, 81, 74, 80, 72, 72, 69, 71, 78
 | 79, 82, 82, 72, 80, 81, 74, 80, 72, 72, 69, 71, 79
 | 78, 81, 83, 74, 79, 80, 75, 80, 73, 73, 70, 71, 77
 | 79, 81, 83, 73, 79, 81, 74, 80, 72, 73, 69, 71, 78
 | 79, 81, 83, 73, 80, 81, 74, 80, 72, 72, 69, 71, 78
 | 79, 82, 83, 73, 80, 81, 74, 80, 72, 72, 69, 71, 78
 | 79, 81, 82, 73, 79, 81, 75, 80, 73, 73, 69, 71, 78
 | 79, 81, 82, 73, 79, 81, 74, 80, 72, 73, 69, 71, 78
 | 78, 82, 81, 72, 82, 80, 74, 79, 72, 72, 69, 71, 81
 | 78, 83, 82, 72, 81, 80, 74, 79, 72, 72, 69, 71, 80
 | 78, 83, 82, 73, 81, 80, 74, 79, 72, 72, 69, 71, 79
 | 78, 82, 83, 73, 80, 80, 74, 79, 72, 72, 69, 71, 79
 | 78, 82, 82, 73, 80, 80, 74, 80, 72, 73, 69, 71, 78
 | 78, 81, 83, 74, 79, 80, 75, 80, 73, 73, 70, 72, 78
 | 78, 81, 83, 74, 78, 80, 75, 80, 73, 73, 70, 72, 77
 | 78, 80, 82, 75, 78, 79, 75, 79, 74, 74, 71, 73, 76
 | 78, 80, 83, 75, 78, 79, 75, 80, 73, 74, 70, 72, 77
 | 78, 81, 83, 74, 78, 80, 75, 80, 73, 73, 70, 72, 77
 | 78, 81, 82, 74, 79, 80, 75, 80, 73, 73, 70, 72, 77
 | 78, 82, 83, 74, 79, 80, 74, 80, 73, 73, 70, 71, 78
 | 78, 82, 83, 73, 80, 80, 74, 80, 72, 73, 69, 71, 78
 | 78, 82, 83, 73, 80, 80, 74, 79, 72, 72, 69, 71, 79
 | 78, 83, 83, 73, 81, 80, 74, 79, 72, 72, 69, 71, 79
 | 78, 83, 82, 73, 81, 80, 74, 79, 72, 72, 69, 71, 80
 | 78, 83, 82, 72, 82, 80, 74, 79, 72, 72, 69, 71, 80
 | 78, 83, 81, 72, 82, 80, 74, 79, 72, 72, 69, 71, 81
 | 78, 83, 82, 72, 82, 80, 74, 79, 72, 72, 69, 71, 80
 | 78, 83, 82, 73, 81, 80, 74, 79, 72, 72, 69, 71, 80
 | 78, 83, 82, 73, 81, 80, 74, 79, 72, 72, 69, 71, 80
 | 78, 83, 83, 73, 80, 80, 74, 79, 72, 72, 69, 71, 79
 | 78, 82, 83, 73, 80, 80, 74, 79, 72, 72, 69, 71, 79
 | 78, 83, 83, 73, 80, 80, 74, 79, 72, 72, 69, 71, 79
 | 78, 82, 83, 73, 80, 80, 74, 79, 72, 72, 69, 71, 79
 | 78, 82, 83, 73, 80, 80, 74, 79, 72, 73, 70, 71, 78
 | 78, 82, 83, 73, 80, 80, 74, 79, 72, 72, 69, 71, 79
 | 78, 82, 83, 73, 80, 80, 74, 79, 72, 73, 69, 71, 79
 | 78, 82, 83, 73, 80, 80, 74, 79, 72, 73, 70, 71, 79
 | 78, 82, 83, 73, 80, 80, 74, 79, 72, 73, 70, 71, 78
 | 78, 82, 83, 73, 80, 80, 74, 79, 73, 73, 70, 71, 78
 | 78, 81, 83, 74, 79, 80, 74, 79, 73, 73, 70, 72, 78
 | 78, 82, 83, 74, 79, 80, 74, 79, 73, 73, 70, 72, 78
 | 78, 82, 83, 74, 80, 80, 74, 79, 73, 73, 70, 72, 78
 | 78, 81, 83, 74, 79, 80, 75, 79, 73, 73, 70, 72, 78
 | 78, 81, 83, 74, 79, 80, 75, 79, 73, 73, 70, 72, 77
 | 78, 81, 83, 74, 78, 79, 75, 79, 73, 74, 70, 72, 77
 | 78, 80, 83, 75, 78, 79, 75, 79, 73, 74, 70, 72, 77
 | 78, 80, 83, 75, 78, 79, 75, 79, 74, 74, 71, 73, 76
 | 78, 80, 83, 75, 78, 79, 75, 79, 73, 74, 70, 73, 76
 | 78, 80, 83, 75, 78, 79, 75, 79, 73, 74, 71, 73, 77
 | 78, 80, 82, 75, 78, 79, 75, 79, 74, 74, 71, 73, 76
 | 78, 80, 82, 75, 77, 79, 75, 79, 74, 74, 71, 73, 76
 | 78, 80, 82, 75, 77, 79, 75, 79, 74, 74, 71, 73, 76
 | 78, 80, 83, 75, 78, 79, 75, 79, 73, 74, 70, 72, 77
 | 78, 81, 82, 74, 78, 79, 75, 79, 73, 73, 70, 72, 77
 | 78, 82, 82, 74, 79, 80, 74, 79, 73, 73, 70, 72, 78
 | 78, 82, 83, 74, 79, 80, 74, 79, 73, 73, 70, 72, 78
 | 78, 82, 83, 73, 80, 80, 74, 79, 72, 72, 69, 71, 79
 | 78, 83, 81, 72, 82, 80, 74, 79, 72, 72, 69, 71, 81
 | 78, 83, 82, 72, 81, 80, 74, 79, 72, 72, 69, 71, 80
 | 78, 83, 82, 73, 81, 80, 74, 79, 72, 72, 69, 71, 80
 | 78, 83, 82, 73, 81, 80, 74, 79, 72, 72, 69, 71, 80
 | 78, 83, 81, 72, 82, 80, 74, 79, 72, 72, 69, 71, 80
 | 78, 83, 83, 73, 81, 80, 74, 79, 72, 72, 69, 71, 79
 | 78, 82, 83, 74, 79, 80, 74, 79, 73, 73, 70, 71, 78
 | 78, 81, 83, 74, 79, 80, 74, 80, 73, 73, 70, 72, 78
 | 78, 81, 82, 74, 79, 80, 75, 80, 73, 73, 70, 72, 77
 | 78, 81, 82, 74, 79, 80, 75, 80, 73, 73, 70, 72, 77
 | 78, 80, 82, 75, 78, 79, 75, 79, 73, 74, 70, 73, 76
 | 78, 81, 83, 74, 78, 80, 75, 80, 73, 73, 70, 72, 77
 | 78, 80, 82, 75, 77, 79, 75, 79, 74, 74, 71, 73, 76
 | 78, 80, 82, 75, 78, 79, 75, 79, 74, 74, 71, 73, 76
 | 78, 83, 81, 72, 82, 80, 74, 79, 72, 72, 69, 71, 81
 | 78, 83, 82, 73, 82, 80, 74, 79, 72, 72, 69, 71, 80
 | 78, 83, 81, 72, 82, 80, 74, 79, 72, 72, 69, 71, 81
 | 78, 83, 82, 73, 82, 80, 74, 79, 72, 72, 69, 71, 80
 | 78, 83, 82, 73, 81, 80, 74, 79, 72, 72, 69, 71, 80
 | 78, 82, 82, 73, 81, 80, 74, 79, 72, 72, 69, 71, 80
 | 78, 83, 82, 73, 81, 80, 74, 79, 72, 72, 69, 71, 80
 | 78, 83, 82, 73, 81, 80, 74, 79, 72, 72, 69, 71, 80
 | 78, 82, 82, 73, 81, 80, 74, 79, 72, 72, 70, 71, 79
 | 78, 82, 83, 73, 80, 80, 74, 79, 72, 72, 70, 71, 79
 | 78, 82, 83, 73, 80, 80, 74, 79, 72, 73, 70, 71, 79
 | 78, 82, 83, 74, 80, 79, 74, 79, 73, 73, 70, 72, 78
 | 78, 81, 83, 74, 79, 79, 74, 79, 73, 73, 70, 72, 78
 | 78, 81, 83, 74, 79, 79, 75, 79, 73, 74, 70, 72, 77
 | 78, 81, 83, 74, 79, 79, 75, 79, 73, 73, 70, 72, 78
 | 78, 82, 82, 74, 79, 79, 74, 79, 73, 73, 70, 72, 78
 | 78, 82, 83, 74, 80, 79, 74, 79, 73, 73, 70, 72, 78
 | 78, 82, 83, 73, 80, 79, 74, 79, 72, 73, 70, 71, 79
 | 78, 82, 82, 73, 81, 79, 74, 79, 72, 72, 70, 71, 80
 | 78, 82, 83, 73, 80, 79, 74, 79, 72, 73, 70, 71, 79
 | 78, 82, 83, 73, 80, 79, 74, 79, 73, 73, 70, 72, 79
 | 78, 82, 83, 73, 80, 79, 74, 79, 73, 73, 70, 71, 79
 | 78, 82, 83, 73, 80, 79, 74, 79, 72, 73, 70, 71, 79
 | 78, 82, 83, 73, 80, 79, 74, 79, 72, 73, 70, 71, 79
 | 78, 82, 83, 74, 80, 79, 74, 79, 73, 73, 70, 72, 78
 | 78, 82, 83, 73, 80, 79, 74, 79, 73, 73, 70, 72, 79
 | 78, 82, 83, 74, 79, 79, 74, 79, 73, 73, 70, 72, 78
 | 78, 81, 82, 74, 79, 79, 74, 79, 73, 73, 70, 72, 78
 | 77, 81, 83, 74, 79, 79, 75, 79, 73, 73, 70, 72, 78
 | 78, 81, 83, 74, 79, 79, 75, 79, 73, 73, 70, 72, 77
 | 77, 81, 83, 74, 79, 79, 74, 79, 73, 73, 70, 72, 78
 | 77, 82, 83, 74, 79, 79, 74, 79, 73, 73, 70, 72, 78
 | 78, 82, 83, 74, 80, 79, 74, 79, 73, 73, 70, 72, 79
 | 78, 82, 83, 73, 80, 80, 74, 79, 72, 73, 70, 71, 79
 | 78, 82, 83, 73, 80, 80, 74, 79, 72, 73, 70, 71, 79
 | 77, 81, 82, 74, 79, 79, 75, 79, 73, 73, 70, 72, 78
 | 77, 81, 83, 75, 78, 79, 75, 79, 73, 74, 71, 72, 77
 | 77, 81, 83, 75, 78, 79, 75, 79, 73, 74, 71, 72, 77
 | 77, 81, 82, 74, 79, 79, 75, 79, 73, 74, 71, 72, 78
 | 77, 81, 82, 74, 79, 79, 75, 79, 73, 73, 71, 72, 78
 | 77, 81, 82, 74, 79, 79, 74, 79, 73, 73, 70, 72, 78
 | 77, 82, 83, 74, 79, 79, 74, 79, 73, 73, 70, 72, 78
 | 77, 82, 83, 74, 80, 79, 74, 79, 73, 73, 70, 72, 79
 | 78, 82, 83, 74, 80, 79, 74, 79, 73, 73, 70, 72, 79
 | 78, 82, 83, 73, 81, 79, 74, 79, 72, 73, 70, 71, 80
 | 78, 82, 83, 73, 80, 79, 74, 79, 72, 73, 70, 71, 79
 | 78, 82, 83, 73, 80, 79, 74, 79, 72, 73, 70, 71, 79
 | 78, 82, 83, 73, 80, 79, 74, 79, 73, 73, 70, 72, 79
 | 77, 82, 83, 74, 80, 79, 74, 79, 73, 73, 70, 72, 79
 | 77, 82, 83, 74, 80, 79, 74, 79, 73, 73, 70, 72, 78
 | 77, 81, 83, 74, 79, 79, 74, 79, 73, 73, 70, 72, 78
 | 77, 81, 82, 74, 79, 79, 74, 79, 73, 73, 70, 72, 78
 | 77, 81, 83, 74, 80, 79, 74, 79, 73, 73, 70, 72, 78
 | 77, 82, 83, 74, 80, 79, 74, 79, 73, 73, 70, 72, 79
 | 78, 82, 83, 73, 80, 79, 74, 79, 73, 73, 70, 72, 79 |];
 P=[11, 11, 11, 11, 11, 11, 11, 4, 4, 4, 4, 4, 4, 4, 4, 4, 4, 4, 11, 11, 11, 11, 11, 11, 11, 11, 11, 4, 4, 4, 4, 4, 4, 4, 4, 4, 4, 4, 4, 4, 4, 4, 4, 11, 11, 11, 11, 11, 11, 11, 11, 11, 11, 11, 4, 4, 4, 4, 4, 4, 4, 4, 4, 4, 4, 4, 4, 4, 4, 4, 4, 4, 4, 4, 4, 4, 4, 4, 4, 4, 4, 4, 11, 11, 4, 4, 4, 11, 11, 11, 11, 11, 11, 11, 11, 11, 11, 11, 4, 4, 4, 4, 4, 4, 4, 4, 4, 4, 12, 12, 12, 12, 12, 12, 12, 12, 12, 12, 12, 12, 12, 12, 12, 12, 12, 12, 12, 12, 12, 12, 12, 12, 10, 10, 10, 10, 10, 9, 9, 10, 10, 10, 10, 10, 10, 10, 10, 10, 10, 9, 9, 10, 10, 10, 10, 10, 10, 10, 10, 7, 7, 7, 7, 7, 7, 7, 7, 7, 7, 7, 7, 7, 7, 7, 7, 7, 7, 7, 7, 7, 7, 7, 7, 7, 7, 7, 7, 7, 7, 7, 7, 7, 7, 7, 7, 7, 7, 7, 7, 7, 7, 7, 7, 7, 7, 7, 7, 7, 7, 7, 7, 7, 7, 7, 7, 7, 7, 7, 7, 7, 7, 7, 7, 7, 7, 7, 7, 7, 7, 7, 7, 7, 1, 1, 1, 1, 1, 1, 1, 1, 1, 1, 1, 1, 1, 1, 1, 1, 1, 1, 1, 1, 1, 1, 1, 1, 1, 1, 1, 1, 1, 1, 1, 1, 1, 1, 1, 1, 1, 1, 1, 1, 8, 8, 8, 8, 8, 8, 8, 8, 1, 1, 1, 1, 1, 1, 1, 1, 1, 1, 1, 1, 1, 1, 6, 6, 8, 8, 8, 8, 8, 8, 8, 8, 8, 8, 1, 8, 8, 1, 1, 1, 1, 6, 6, 6, 6, 6, 6, 6, 6, 6, 6, 6, 6, 6, 6, 6, 6, 6, 6, 6, 6, 6, 6, 6, 6, 6, 6, 6, 6, 6, 6, 6, 6, 6, 5, 5, 5, 5, 5, 5, 5, 5, 5, 5, 5, 5, 13, 5, 5, 5, 5, 5, 5, 5, 5, 5, 5, 5, 5, 5, 5, 5, 5, 5, 5, 5, 5, 5, 5, 5, 5, 5, 5, 5, 5, 5, 5, 5, 5, 5, 5, 5, 5, 5, 5, 5, 5, 5, 5, 5, 5, 5, 5, 5, 5, 5, 5, 5, 5, 5, 5, 5, 5, 5, 5, 5, 5, 5, 5, 5, 5, 5, 5, 5, 5, 5, 5, 5, 5, 5, 5, 5, 5, 5, 5, 5, 3, 3, 3, 3, 3, 3, 3, 3, 3, 3, 3, 3, 3, 3, 3, 3, 3, 3, 3, 3, 3, 3, 3, 3, 3, 3, 3, 3, 3, 3, 3, 3, 2, 2, 2, 3, 3, 3, 3, 3, 3, 3, 3, 3, 3, 3, 2, 2, 2, 2, 2, 2, 2, 2, 3, 3, 3, 3, 3, 3, 3, 3, 3, 3, 3, 3, 3, 3, 3, 3, 3, 3, 3, 3, 3, 3, 3, 3, 3, 3, 3, 2, 2, 2, 2, 2, 2, 3, 3, 3, 3, 3, 3, 3, 3, 2, 2, 2, 2, 2, 2, 2, 2, 2, 3, 3, 3, 3, 3, 3, 3, 3, 3, 2, 3, 3, 3, 3, 3, 3, 3, 3, 3, 3, 3, 3, 3, 3, 3, 3, 3, 3, 3, 3, 3, 3, 3, 3, 3, 2, 3, 3, 3, 3, 3, 3, 3, 3, 3, 3 ];